
Log started (V11.0.0) Tue Apr 15 19:05:57 2008

Tried aggregator 1 time.
Reduced MIP has 110 rows, 1001 columns, and 2010 nonzeros.
Presolve time =   -0.00 sec.
Clique table members: 100.
MIP emphasis: balance optimality and feasibility.
MIP search method: dynamic search.
Parallel mode: none, using 1 thread.
Root relaxation solution time =    0.02 sec.

        Nodes                                         Cuts/
   Node  Left     Objective  IInf  Best Integer     Best Node    ItCnt     Gap

*     0+    0                         4983.0000      176.3095      234   96.46%
*     0+    0                          192.0000      176.3095      234    8.17%
      0     0      177.0000    16      192.0000      Fract: 9      243    7.81%
*     0+    0                          190.0000      177.0000      243    6.84%
      0     0      177.0000    20      190.0000     Covers: 2      257    6.84%
*     0+    0                          189.0000      177.0000      257    6.35%
      0     0      177.0000    22      189.0000     Covers: 1      261    6.35%
*     0+    0                          185.0000      177.0000      261    4.32%
      0     2      177.0000    22      185.0000      177.0000      261    4.32%
*    30+   24                          183.0000      177.0000     1737    3.28%
*    50+   35                          182.0000      177.0000     2247    2.75%
    100    79      179.0000    15      182.0000      177.0000     4153    2.75%
*   150+  108                          181.0000      177.0000     5121    2.21%
    200   145      178.0000    20      181.0000      177.0000     6024    2.21%
    300   217      179.0000    13      181.0000      177.0000     8342    2.21%
    400   287      178.0000    16      181.0000      177.0000    10148    2.21%
*   493+  241                          180.0000      178.0000    12988    1.11%
    500   243      178.0000    17      180.0000      178.0000    13147    1.11%
    600   231      179.0000    35      180.0000      178.0000    19803    1.11%
    700   242      179.0000    42      180.0000      178.0000    28324    1.11%
    800   249      179.0000    44      180.0000      178.0000    38515    1.11%
    900   299      179.0000    43      180.0000      178.0000    48346    1.11%
   1000   365      178.8872    69      180.0000      178.0000    58296    1.11%
Elapsed time =   6.25 sec. (tree size =  0.13 MB, solutions = 9)
   1100   438      179.0000    54      180.0000      178.0000    72689    1.11%
   1200   505      179.0000    75      180.0000      178.0000    88253    1.11%
   1300   564      178.0074    74      180.0000      178.0000   106901    1.11%
*  1301   112      integral     0      179.0000      178.0000   106918    0.56%
   1400    13    infeasible            179.0000      178.0000   139595    0.56%

Cover cuts applied:  350
Mixed integer rounding cuts applied:  9
Gomory fractional cuts applied:  2

Solution pool: 10 solutions saved.

MIP - Integer optimal solution:  Objective = 1.7900000000e+002
Solution time =   17.72 sec.  Iterations = 156511  Nodes = 1449


Incumbent solution
Variable Name           Solution Value
Cmax                        179.000000
X_1_7                         1.000000
X_2_6                         1.000000
X_3_9                         1.000000
X_4_1                         1.000000
X_5_10                        1.000000
X_6_1                         1.000000
X_7_7                         1.000000
X_8_6                         1.000000
X_9_3                         1.000000
X_10_2                        1.000000
X_11_10                       1.000000
X_12_4                        1.000000
X_13_8                        1.000000
X_14_6                        1.000000
X_15_3                        1.000000
X_16_10                       1.000000
X_17_8                        1.000000
X_18_10                       1.000000
X_19_10                       1.000000
X_20_9                        1.000000
X_21_6                        1.000000
X_22_4                        1.000000
X_23_2                        1.000000
X_24_5                        1.000000
X_25_10                       1.000000
X_26_3                        1.000000
X_27_7                        1.000000
X_28_6                        1.000000
X_29_1                        1.000000
X_30_9                        1.000000
X_31_5                        1.000000
X_32_1                        1.000000
X_33_8                        1.000000
X_34_3                        1.000000
X_35_3                        1.000000
X_36_10                       1.000000
X_37_3                        1.000000
X_38_1                        1.000000
X_39_1                        1.000000
X_40_1                        1.000000
X_41_4                        1.000000
X_42_9                        1.000000
X_43_2                        1.000000
X_44_7                        1.000000
X_45_2                        1.000000
X_46_5                        1.000000
X_47_8                        1.000000
X_48_1                        1.000000
X_49_2                        1.000000
X_50_4                        1.000000
X_51_9                        1.000000
X_52_9                        1.000000
X_53_7                        1.000000
X_54_8                        1.000000
X_55_2                        1.000000
X_56_2                        1.000000
X_57_6                        1.000000
X_58_8                        1.000000
X_59_6                        1.000000
X_60_3                        1.000000
X_61_5                        1.000000
X_62_9                        1.000000
X_63_4                        1.000000
X_64_6                        1.000000
X_65_2                        1.000000
X_66_6                        1.000000
X_67_1                        1.000000
X_68_4                        1.000000
X_69_9                        1.000000
X_70_7                        1.000000
X_71_10                       1.000000
X_72_8                        1.000000
X_73_3                        1.000000
X_74_7                        1.000000
X_75_9                        1.000000
X_76_8                        1.000000
X_77_9                        1.000000
X_78_2                        1.000000
X_79_1                        1.000000
X_80_5                        1.000000
X_81_4                        1.000000
X_82_3                        1.000000
X_83_5                        1.000000
X_84_2                        1.000000
X_85_7                        1.000000
X_86_7                        1.000000
X_87_10                       1.000000
X_88_3                        1.000000
X_89_4                        1.000000
X_90_10                       1.000000
X_91_9                        1.000000
X_92_7                        1.000000
X_93_1                        1.000000
X_94_4                        1.000000
X_95_8                        1.000000
X_96_5                        1.000000
X_97_5                        1.000000
X_98_5                        1.000000
X_99_6                        1.000000
X_100_2                       1.000000
All other variables in the range 1-1001 are 0.
